p cnf 11 20
11 9 8 0
11 9 7 0
-11 -7 4 0
-11 -3 -2 0
-11 3 1 0
-10 9 -6 0
10 -8 -7 0
-10 -8 4 0
-10 8 -3 0
10 8 -2 0
-10 -3 1 0
9 8 -3 0
9 -7 -5 0
9 7 3 0
-8 -5 2 0
7 -6 2 0
7 -5 1 0
-6 -3 1 0
5 -3 1 0
-4 3 -2 0
